p cnf 412 698
23 -7 -22 76 0
23 -7 -22 -76 0
7 17 -33 77 0
7 17 -33 -77 0
-35 58 -61 78 0
-35 58 -61 -78 0
10 -39 44 79 0
10 -39 44 -79 0
-14 -45 1 80 0
-14 -45 1 -80 0
2 59 25 81 0
2 59 25 -81 0
-13 -42 -49 82 0
-13 -42 -49 -82 0
-73 27 -28 83 0
-73 27 -28 -83 0
-27 -22 14 84 0
-27 -22 14 -84 0
21 52 50 85 0
21 52 50 -85 0
-25 -33 9 86 0
-25 -33 9 -86 0
-66 52 -75 87 0
-66 52 -75 -87 0
9 -12 20 88 0
9 -12 20 -88 0
12 22 52 89 0
12 22 52 -89 0
31 -37 66 90 0
31 -37 66 -90 0
-30 -8 55 91 0
-30 -8 55 -91 0
-73 47 70 92 0
-73 47 70 -92 0
65 -19 20 93 0
65 -19 20 -93 0
40 67 -35 94 0
40 67 -35 -94 0
32 -48 -12 95 0
32 -48 -12 -95 0
44 -7 -2 96 0
44 -7 -2 -96 0
41 -43 -30 97 0
41 -43 -30 -97 0
-43 29 58 98 0
-43 29 58 -98 0
1 2 -29 99 0
1 2 -29 -99 0
10 -49 -19 100 0
10 -49 -19 -100 0
17 -39 -3 101 0
17 -39 -3 -101 0
1 -27 -15 102 0
1 -27 -15 -102 0
-70 30 -7 103 0
-70 30 -7 -103 0
-14 -17 -46 104 0
-14 -17 -46 -104 0
14 61 37 105 0
14 61 37 -105 0
29 -23 -72 106 0
29 -23 -72 -106 0
3 -42 -10 107 0
3 -42 -10 -107 0
71 -67 -26 108 0
71 -67 -26 -108 0
46 57 59 109 0
46 57 59 -109 0
-4 -38 20 110 0
-4 -38 20 -110 0
-73 -23 50 111 0
-73 -23 50 -111 0
-52 -56 -57 112 0
-52 -56 -57 -112 0
58 -68 45 113 0
58 -68 45 -113 0
50 -40 69 114 0
50 -40 69 -114 0
67 59 -55 115 0
67 59 -55 -115 0
38 21 -73 116 0
38 21 -73 -116 0
27 -66 32 117 0
27 -66 32 -117 0
62 -33 22 118 0
62 -33 22 -118 0
43 -16 57 119 0
43 -16 57 -119 0
54 -40 -20 120 0
54 -40 -20 -120 0
8 13 64 121 0
8 13 64 -121 0
55 -51 -68 122 0
55 -51 -68 -122 0
-40 45 -2 123 0
-40 45 -2 -123 0
-4 44 57 124 0
-4 44 57 -124 0
-21 58 -70 125 0
-21 58 -70 -125 0
-8 24 58 126 0
-8 24 58 -126 0
-74 8 -58 127 0
-74 8 -58 -127 0
34 -60 11 128 0
34 -60 11 -128 0
-2 49 -54 129 0
-2 49 -54 -129 0
14 54 -41 130 0
14 54 -41 -130 0
53 27 5 131 0
53 27 5 -131 0
42 21 -41 132 0
42 21 -41 -132 0
65 45 75 133 0
65 45 75 -133 0
7 -64 65 134 0
7 -64 65 -134 0
75 -13 -11 135 0
75 -13 -11 -135 0
-45 74 -23 136 0
-45 74 -23 -136 0
12 -73 15 137 0
12 -73 15 -137 0
-68 -27 4 138 0
-68 -27 4 -138 0
-4 -31 -68 139 0
-4 -31 -68 -139 0
-52 -62 -6 140 0
-52 -62 -6 -140 0
39 54 17 141 0
39 54 17 -141 0
-42 -8 21 142 0
-42 -8 21 -142 0
-57 -17 -29 143 0
-57 -17 -29 -143 0
-58 -14 46 144 0
-58 -14 46 -144 0
-46 42 -7 145 0
-46 42 -7 -145 0
-44 75 -41 146 0
-44 75 -41 -146 0
67 -71 -59 147 0
67 -71 -59 -147 0
-37 42 -66 148 0
-37 42 -66 -148 0
33 -3 -62 149 0
33 -3 -62 -149 0
24 -23 -18 150 0
24 -23 -18 -150 0
-18 42 53 151 0
-18 42 53 -151 0
34 19 -2 152 0
34 19 -2 -152 0
-66 -68 -27 153 0
-66 -68 -27 -153 0
29 15 50 154 0
29 15 50 -154 0
68 -41 -50 155 0
68 -41 -50 -155 0
-64 -14 -15 156 0
-64 -14 -15 -156 0
-48 -30 61 157 0
-48 -30 61 -157 0
-36 37 -9 158 0
-36 37 -9 -158 0
35 -46 5 159 0
35 -46 5 -159 0
36 -53 -64 160 0
36 -53 -64 -160 0
-57 52 -73 161 0
-57 52 -73 -161 0
38 -66 -23 162 0
38 -66 -23 -162 0
-39 -1 -31 163 0
-39 -1 -31 -163 0
-38 22 18 164 0
-38 22 18 -164 0
-65 66 -56 165 0
-65 66 -56 -165 0
37 -58 -21 166 0
37 -58 -21 -166 0
-28 -17 -29 167 0
-28 -17 -29 -167 0
-45 -4 -69 168 0
-45 -4 -69 -168 0
-47 -13 3 169 0
-47 -13 3 -169 0
-67 44 25 170 0
-67 44 25 -170 0
17 58 -8 171 0
17 58 -8 -171 0
75 44 -3 172 0
75 44 -3 -172 0
22 -64 46 173 0
22 -64 46 -173 0
-73 35 33 174 0
-73 35 33 -174 0
-33 -16 57 175 0
-33 -16 57 -175 0
7 -5 60 176 0
7 -5 60 -176 0
1 -41 -46 177 0
1 -41 -46 -177 0
46 16 -53 178 0
46 16 -53 -178 0
-37 29 74 179 0
-37 29 74 -179 0
-7 -62 38 180 0
-7 -62 38 -180 0
-66 -51 -30 181 0
-66 -51 -30 -181 0
52 -66 36 182 0
52 -66 36 -182 0
-11 -40 45 183 0
-11 -40 45 -183 0
28 17 -30 184 0
28 17 -30 -184 0
49 18 45 185 0
49 18 45 -185 0
-36 -71 -63 186 0
-36 -71 -63 -186 0
60 -22 42 187 0
60 -22 42 -187 0
49 -54 -1 188 0
49 -54 -1 -188 0
-19 70 73 189 0
-19 70 73 -189 0
-31 70 26 190 0
-31 70 26 -190 0
-13 41 -27 191 0
-13 41 -27 -191 0
52 15 -18 192 0
52 15 -18 -192 0
-55 8 40 193 0
-55 8 40 -193 0
35 45 1 194 0
35 45 1 -194 0
-41 -49 16 195 0
-41 -49 16 -195 0
-22 61 -48 196 0
-22 61 -48 -196 0
-37 -31 -62 197 0
-37 -31 -62 -197 0
34 73 13 198 0
34 73 13 -198 0
49 68 -19 199 0
49 68 -19 -199 0
46 58 -54 200 0
46 58 -54 -200 0
59 17 -60 201 0
59 17 -60 -201 0
-1 38 30 202 0
-1 38 30 -202 0
-36 -52 -17 203 0
-36 -52 -17 -203 0
66 -38 -33 204 0
66 -38 -33 -204 0
48 -15 -25 205 0
48 -15 -25 -205 0
26 -36 -72 206 0
26 -36 -72 -206 0
-10 -68 -36 207 0
-10 -68 -36 -207 0
59 -16 30 208 0
59 -16 30 -208 0
-41 -53 58 209 0
-41 -53 58 -209 0
-40 -34 41 210 0
-40 -34 41 -210 0
-44 11 -52 211 0
-44 11 -52 -211 0
-39 -29 36 212 0
-39 -29 36 -212 0
-52 31 7 213 0
-52 31 7 -213 0
17 -71 10 214 0
17 -71 10 -214 0
-53 17 1 215 0
-53 17 1 -215 0
-11 12 69 216 0
-11 12 69 -216 0
14 -60 73 217 0
14 -60 73 -217 0
-65 29 -44 218 0
-65 29 -44 -218 0
23 22 -58 219 0
23 22 -58 -219 0
-67 -14 -57 220 0
-67 -14 -57 -220 0
9 -65 71 221 0
9 -65 71 -221 0
40 -54 -12 222 0
40 -54 -12 -222 0
51 -56 18 223 0
51 -56 18 -223 0
-7 74 44 224 0
-7 74 44 -224 0
30 21 -18 225 0
30 21 -18 -225 0
-70 22 62 226 0
-70 22 62 -226 0
17 63 -6 227 0
17 63 -6 -227 0
17 75 53 228 0
17 75 53 -228 0
57 25 -27 229 0
57 25 -27 -229 0
-30 -44 2 230 0
-30 -44 2 -230 0
44 -50 -36 231 0
44 -50 -36 -231 0
57 -48 -63 232 0
57 -48 -63 -232 0
-27 72 -37 233 0
-27 72 -37 -233 0
-43 -41 -16 234 0
-43 -41 -16 -234 0
23 73 69 235 0
23 73 69 -235 0
52 49 -67 236 0
52 49 -67 -236 0
74 5 35 237 0
74 5 35 -237 0
35 73 -56 238 0
35 73 -56 -238 0
-63 54 -60 239 0
-63 54 -60 -239 0
-3 -56 -54 240 0
-3 -56 -54 -240 0
33 -35 -39 241 0
33 -35 -39 -241 0
72 -50 1 242 0
72 -50 1 -242 0
51 17 75 243 0
51 17 75 -243 0
-75 24 67 244 0
-75 24 67 -244 0
40 7 -5 245 0
40 7 -5 -245 0
-10 -36 -21 246 0
-10 -36 -21 -246 0
-45 56 47 247 0
-45 56 47 -247 0
-47 63 45 248 0
-47 63 45 -248 0
-59 19 30 249 0
-59 19 30 -249 0
74 -43 -40 250 0
74 -43 -40 -250 0
65 -70 -3 251 0
65 -70 -3 -251 0
-8 -13 -44 252 0
-8 -13 -44 -252 0
-7 -29 -44 253 0
-7 -29 -44 -253 0
57 58 5 254 0
57 58 5 -254 0
44 32 50 255 0
44 32 50 -255 0
-51 24 -31 256 0
-51 24 -31 -256 0
41 42 -11 257 0
41 42 -11 -257 0
65 27 21 258 0
65 27 21 -258 0
20 -59 3 259 0
20 -59 3 -259 0
33 -38 67 260 0
33 -38 67 -260 0
-43 -22 50 261 0
-43 -22 50 -261 0
72 -41 -51 262 0
72 -41 -51 -262 0
75 -40 23 263 0
75 -40 23 -263 0
-39 -18 10 264 0
-39 -18 10 -264 0
-2 75 42 265 0
-2 75 42 -265 0
-19 -50 33 266 0
-19 -50 33 -266 0
-2 -44 -74 267 0
-2 -44 -74 -267 0
-48 -50 13 268 0
-48 -50 13 -268 0
21 -33 -28 269 0
21 -33 -28 -269 0
-34 -75 70 270 0
-34 -75 70 -270 0
-12 11 50 271 0
-12 11 50 -271 0
-2 -5 -66 272 0
-2 -5 -66 -272 0
-48 29 15 273 0
-48 29 15 -273 0
71 -44 -42 274 0
71 -44 -42 -274 0
18 33 41 275 0
18 33 41 -275 0
13 -43 63 276 0
13 -43 63 -276 0
14 51 -74 277 0
14 51 -74 -277 0
-62 61 -54 278 0
-62 61 -54 -278 0
-43 -53 -29 279 0
-43 -53 -29 -279 0
7 -9 -34 280 0
7 -9 -34 -280 0
31 9 35 281 0
31 9 35 -281 0
27 -34 56 282 0
27 -34 56 -282 0
-65 35 74 283 0
-65 35 74 -283 0
-31 -49 60 284 0
-31 -49 60 -284 0
53 -45 46 285 0
53 -45 46 -285 0
3 19 -20 286 0
3 19 -20 -286 0
43 62 -74 287 0
43 62 -74 -287 0
37 -2 6 288 0
37 -2 6 -288 0
42 -1 60 289 0
42 -1 60 -289 0
64 -37 -68 290 0
64 -37 -68 -290 0
-45 52 73 291 0
-45 52 73 -291 0
29 56 21 292 0
29 56 21 -292 0
74 -41 35 293 0
74 -41 35 -293 0
16 -42 -5 294 0
16 -42 -5 -294 0
24 56 -27 295 0
24 56 -27 -295 0
-71 -60 -51 296 0
-71 -60 -51 -296 0
-27 3 -45 297 0
-27 3 -45 -297 0
-5 29 14 298 0
-5 29 14 -298 0
-44 -49 -55 299 0
-44 -49 -55 -299 0
-38 73 -29 300 0
-38 73 -29 -300 0
-64 8 27 301 0
-64 8 27 -301 0
-28 3 -73 302 0
-28 3 -73 -302 0
-5 61 -60 303 0
-5 61 -60 -303 0
-13 -67 53 304 0
-13 -67 53 -304 0
25 -38 53 305 0
25 -38 53 -305 0
-2 -59 -48 306 0
-2 -59 -48 -306 0
-68 12 50 307 0
-68 12 50 -307 0
36 -15 67 308 0
36 -15 67 -308 0
-18 -72 -1 309 0
-18 -72 -1 -309 0
-20 7 -5 310 0
-20 7 -5 -310 0
-18 -21 39 311 0
-18 -21 39 -311 0
38 -54 -34 312 0
38 -54 -34 -312 0
20 5 -60 313 0
20 5 -60 -313 0
21 43 39 314 0
21 43 39 -314 0
-63 -57 -28 315 0
-63 -57 -28 -315 0
46 -71 -69 316 0
46 -71 -69 -316 0
-32 24 33 317 0
-32 24 33 -317 0
34 -56 7 318 0
34 -56 7 -318 0
61 12 74 319 0
61 12 74 -319 0
-46 20 -17 320 0
-46 20 -17 -320 0
-46 -57 -66 321 0
-46 -57 -66 -321 0
-18 22 1 322 0
-18 22 1 -322 0
-53 -45 18 323 0
-53 -45 18 -323 0
16 -48 -21 324 0
16 -48 -21 -324 0
-50 -43 72 325 0
-50 -43 72 -325 0
-61 -12 -64 326 0
-61 -12 -64 -326 0
28 -69 1 327 0
28 -69 1 -327 0
65 23 -57 328 0
65 23 -57 -328 0
15 23 18 329 0
15 23 18 -329 0
13 12 57 330 0
13 12 57 -330 0
17 -63 34 331 0
17 -63 34 -331 0
-60 66 -3 332 0
-60 66 -3 -332 0
-73 7 70 333 0
-73 7 70 -333 0
-24 -29 -41 334 0
-24 -29 -41 -334 0
1 -72 -36 335 0
1 -72 -36 -335 0
26 61 17 336 0
26 61 17 -336 0
15 -28 -75 337 0
15 -28 -75 -337 0
-40 -70 -52 338 0
-40 -70 -52 -338 0
-6 20 41 339 0
-6 20 41 -339 0
70 -2 -56 340 0
70 -2 -56 -340 0
-30 61 55 341 0
-30 61 55 -341 0
1 -25 33 342 0
1 -25 33 -342 0
-73 -21 26 343 0
-73 -21 26 -343 0
48 -4 -41 344 0
48 -4 -41 -344 0
33 -67 -47 345 0
33 -67 -47 -345 0
51 26 -32 346 0
51 26 -32 -346 0
-34 12 -66 347 0
-34 12 -66 -347 0
-23 -10 -68 348 0
-23 -10 -68 -348 0
70 -31 -69 349 0
70 -31 -69 -349 0
-6 2 -58 350 0
-6 2 -58 -350 0
-23 65 4 351 0
-23 65 4 -351 0
21 -53 -28 352 0
21 -53 -28 -352 0
-59 -67 49 353 0
-59 -67 49 -353 0
41 -36 62 354 0
41 -36 62 -354 0
24 -1 -32 355 0
24 -1 -32 -355 0
-59 -74 -35 356 0
-59 -74 -35 -356 0
4 74 -31 357 0
4 74 -31 -357 0
-70 -69 65 358 0
-70 -69 65 -358 0
-74 -9 -66 359 0
-74 -9 -66 -359 0
-16 -66 -62 360 0
-16 -66 -62 -360 0
-17 -56 37 361 0
-17 -56 37 -361 0
-29 47 14 362 0
-29 47 14 -362 0
-58 -72 -17 363 0
-58 -72 -17 -363 0
-3 39 69 364 0
-3 39 69 -364 0
-54 40 27 365 0
-54 40 27 -365 0
-2 28 -4 366 0
-2 28 -4 -366 0
-54 32 19 367 0
-54 32 19 -367 0
16 -72 -17 368 0
16 -72 -17 -368 0
18 -47 -20 369 0
18 -47 -20 -369 0
-48 -17 8 370 0
-48 -17 8 -370 0
22 58 -46 371 0
22 58 -46 -371 0
72 -75 5 372 0
72 -75 5 -372 0
-35 -8 -16 373 0
-35 -8 -16 -373 0
-33 -58 -31 374 0
-33 -58 -31 -374 0
21 -42 -11 375 0
21 -42 -11 -375 0
47 62 -50 376 0
47 62 -50 -376 0
-66 7 -72 377 0
-66 7 -72 -377 0
14 56 71 378 0
14 56 71 -378 0
-14 -64 18 379 0
-14 -64 18 -379 0
-38 62 53 380 0
-38 62 53 -380 0
41 62 4 381 0
41 62 4 -381 0
11 -70 -21 382 0
11 -70 -21 -382 0
-70 3 -22 383 0
-70 3 -22 -383 0
-26 46 42 384 0
-26 46 42 -384 0
55 52 69 385 0
55 52 69 -385 0
-50 66 -70 386 0
-50 66 -70 -386 0
67 16 -68 387 0
67 16 -68 -387 0
55 18 59 388 0
55 18 59 -388 0
55 34 -61 389 0
55 34 -61 -389 0
29 56 52 390 0
29 56 52 -390 0
29 -62 -67 391 0
29 -62 -67 -391 0
21 -32 12 392 0
21 -32 12 -392 0
-69 24 -52 393 0
-69 24 -52 -393 0
-69 6 18 394 0
-69 6 18 -394 0
54 55 74 395 0
54 55 74 -395 0
32 -30 73 396 0
32 -30 73 -396 0
20 74 69 397 0
20 74 69 -397 0
-66 -6 62 398 0
-66 -6 62 -398 0
-28 52 -18 399 0
-28 52 -18 -399 0
-64 -10 24 400 0
-64 -10 24 -400 0
401 402 403 404 0
401 402 403 -404 0
401 402 -403 404 0
401 402 -403 -404 0
401 -402 403 404 0
401 -402 403 -404 0
401 -402 -403 404 0
401 -402 -403 -404 0
-401 402 403 404 0
-401 402 403 -404 0
-401 402 -403 404 0
-401 402 -403 -404 0
-401 -402 403 404 0
-401 -402 403 -404 0
-401 -402 -403 404 0
-401 -402 -403 -404 0
405 406 407 408 0
405 406 407 -408 0
405 406 -407 408 0
405 406 -407 -408 0
405 -406 407 408 0
405 -406 407 -408 0
405 -406 -407 408 0
405 -406 -407 -408 0
-405 406 407 408 0
-405 406 407 -408 0
-405 406 -407 408 0
-405 406 -407 -408 0
-405 -406 407 408 0
-405 -406 407 -408 0
-405 -406 -407 408 0
-405 -406 -407 -408 0
409 410 411 412 0
409 410 411 -412 0
409 410 -411 412 0
409 410 -411 -412 0
409 -410 411 412 0
409 -410 411 -412 0
409 -410 -411 412 0
409 -410 -411 -412 0
-409 410 411 412 0
-409 410 411 -412 0
-409 410 -411 412 0
-409 410 -411 -412 0
-409 -410 411 412 0
-409 -410 411 -412 0
-409 -410 -411 412 0
-409 -410 -411 -412 0
